Minimize
  obj: x0 + x1 + x2 + x3 + x4 + x5 + x6 + x7

Subject To
  c0: x2 + x4 + x5 = 25
  c1: x3 + x4 = 25
  c2: x0 + x2 + x3 + x6 + x7 = 42
  c3: x0 + x2 + x3 = 27
  c4: x0 + x1 + x2 + x3 + x4 + x7 = 43
  c5: x2 + x6 = 20
  c6: x1 + x3 + x4 = 27

Bounds
  x0 >= 0
  x1 >= 0
  x2 >= 0
  x3 >= 0
  x4 >= 0
  x5 >= 0
  x6 >= 0
  x7 >= 0

Generals
  x0 x1 x2 x3 x4 x5 x6 x7

End
